20	5
0	6	1	3	6	2	4	5
1	1	9
2	4	15	19	18	20
3	4	20	18	17	13
4	4	8	19	18	14
5	6	15	17	19	20	18	16
6	5	15	16	17	20	18
7	2	13	20
8	1	12
9	3	12	10	18
10	2	14	19
11	1	17
12	3	17	15	20
13	1	16
14	1	11
15	1	21
16	1	21
17	1	21
18	1	21
19	1	21
20	1	21
21	0
0	0	0	0	0	0	0
1	5	1	3	0	4	0
2	6	4	5	4	5	5
3	1	5	4	5	5	3
4	1	2	1	3	4	4
5	2	4	0	0	2	0
6	3	5	3	0	0	3
7	2	3	0	0	0	1
8	7	4	0	0	2	0
9	4	1	5	3	4	2
10	9	4	1	5	4	4
11	7	5	3	5	0	1
12	2	0	5	2	4	0
13	2	5	5	4	1	4
14	4	1	3	3	3	5
15	3	0	3	5	4	2
16	3	2	4	0	1	0
17	5	5	5	1	4	3
18	7	1	0	1	0	0
19	4	1	5	1	4	2
20	3	0	3	0	4	0
21	0	0	0	0	0	0
9	8	7	9	8
